instances/knapsack/discrete_knapsack_uncertainty/knapsack_110_14.lp
\ Model knapsack_110_14
\ LP format - for model browsing. Use MPS format to capture full model detail.
\ Signature: 0x1c7a262dccd0e095
Minimize
  - 6 x[0] - 63 x[1] - 44 x[2] - 28 x[3] - 6 x[4] - 33 x[5] - 54 x[6]
   - 36 x[7] - 63 x[8] - 11 x[9] - 3 x[10] - 3 x[11] - 55 x[12] - 82 x[13]
   - 23 x[14] - 76 x[15] - 74 x[16] - 46 x[17] - 83 x[18] - 54 x[19]
   - 42 x[20] - 99 x[21] - 48 x[22] - 12 x[23] - 73 x[24] - 39 x[25]
   - 32 x[26] - 12 x[27] - 22 x[28] - 53 x[29] - x[30] - 84 x[31]
   - 64 x[32] - 35 x[33] - 32 x[34] - 21 x[35] - 65 x[36] - 39 x[37]
   - 51 x[38] - 56 x[39] - 100 x[40] - 30 x[41] - 62 x[42] - 31 x[43]
   - 35 x[44] - 75 x[45] - 61 x[46] - 97 x[47] - 77 x[48] - 14 x[49]
   - 59 x[50] - 3 x[51] - 11 x[52] - 89 x[53] - 60 x[54] - 90 x[55]
   - 91 x[56] - 72 x[57] - 40 x[58] - 95 x[59] - 28 x[60] - 54 x[61]
   - 94 x[62] - 14 x[63] - 47 x[64] - 33 x[65] - 57 x[66] - 26 x[67]
   - 53 x[68] - 14 x[69] - x[70] - 47 x[71] - 41 x[72] - 98 x[73] - 7 x[74]
   - 6 x[75] - 94 x[76] - 5 x[77] - 36 x[78] - 12 x[79] - 11 x[80]
   - 58 x[81] - 58 x[82] - 2 x[83] - 5 x[84] - 17 x[85] - 14 x[86]
   - 75 x[87] - 8 x[88] - 99 x[89] - 10 x[90] - 26 x[91] - 42 x[92]
   - 69 x[93] - 8 x[94] - 43 x[95] - 61 x[96] - 60 x[97] - 25 x[98]
   - 93 x[99] - 13 x[100] - 46 x[101] - 7 x[102] - 18 x[103] - 71 x[104]
   - 83 x[105] - 22 x[106] - 61 x[107] - 46 x[108] - 13 x[109]
Subject To
 primal_upper: 32 x[0] + 100 x[1] + 46 x[2] + 71 x[3] + 28 x[4] + 30 x[5]
   + 61 x[6] + 28 x[7] + 93 x[8] + 74 x[9] + 68 x[10] + 43 x[11] + 28 x[12]
   + 60 x[13] + 89 x[14] + 93 x[15] + 85 x[16] + 96 x[17] + 41 x[18]
   + 22 x[19] + 69 x[20] + 60 x[21] + 64 x[22] + 23 x[23] + 33 x[24]
   + 24 x[25] + 62 x[26] + 92 x[27] + 6 x[28] + 83 x[29] + 58 x[30]
   + 48 x[31] + 76 x[32] + 61 x[33] + 52 x[34] + 93 x[35] + 64 x[36]
   + 89 x[37] + 68 x[38] + 83 x[39] + 87 x[40] + 98 x[41] + 34 x[42]
   + 6 x[43] + 11 x[44] + 63 x[45] + 54 x[46] + 98 x[47] + 99 x[48]
   + 92 x[49] + 39 x[50] + 24 x[51] + 77 x[52] + 76 x[53] + 77 x[54]
   + 48 x[55] + x[56] + 87 x[57] + 48 x[58] + 82 x[59] + 9 x[60] + 7 x[61]
   + 48 x[62] + 23 x[63] + 36 x[64] + 24 x[65] + 69 x[66] + 55 x[67]
   + 72 x[68] + 62 x[69] + 30 x[70] + 10 x[71] + 2 x[72] + 79 x[73]
   + 16 x[74] + 89 x[75] + 59 x[76] + 15 x[77] + 73 x[78] + 55 x[79]
   + 26 x[80] + 78 x[81] + 31 x[82] + 98 x[83] + 74 x[84] + 54 x[85]
   + 24 x[86] + 60 x[87] + 78 x[88] + 83 x[89] + 61 x[90] + 13 x[91]
   + 57 x[92] + 8 x[93] + 72 x[94] + 89 x[95] + 9 x[96] + 69 x[97]
   + 72 x[98] + 4 x[99] + 25 x[100] + 60 x[101] + 6 x[102] + 24 x[103]
   + 17 x[104] + 50 x[105] + 43 x[106] + 99 x[107] + 15 x[108] + 85 x[109]
   + 3.2 r[0] + 10 r[1] + 4.6 r[2] + 7.1 r[3] + 2.8 r[4] + 3 r[5]
   + 6.1 r[6] + 2.8 r[7] + 9.3 r[8] + 7.4 r[9] + 6.8 r[10] + 4.3 r[11]
   + 2.8 r[12] + 6 r[13] + 8.9 r[14] + 9.3 r[15] + 8.5 r[16] + 9.6 r[17]
   + 4.1 r[18] + 2.2 r[19] + 6.9 r[20] + 6 r[21] + 6.4 r[22] + 2.3 r[23]
   + 3.3 r[24] + 2.4 r[25] + 6.2 r[26] + 9.2 r[27] + 0.6 r[28] + 8.3 r[29]
   + 5.8 r[30] + 4.8 r[31] + 7.6 r[32] + 6.1 r[33] + 5.2 r[34] + 9.3 r[35]
   + 6.4 r[36] + 8.9 r[37] + 6.8 r[38] + 8.3 r[39] + 8.7 r[40] + 9.8 r[41]
   + 3.4 r[42] + 0.6 r[43] + 1.1 r[44] + 6.3 r[45] + 5.4 r[46] + 9.8 r[47]
   + 9.9 r[48] + 9.2 r[49] + 3.9 r[50] + 2.4 r[51] + 7.7 r[52] + 7.6 r[53]
   + 7.7 r[54] + 4.8 r[55] + 0.1 r[56] + 8.7 r[57] + 4.8 r[58] + 8.2 r[59]
   + 0.9 r[60] + 0.7 r[61] + 4.8 r[62] + 2.3 r[63] + 3.6 r[64] + 2.4 r[65]
   + 6.9 r[66] + 5.5 r[67] + 7.2 r[68] + 6.2 r[69] + 3 r[70] + r[71]
   + 0.2 r[72] + 7.9 r[73] + 1.6 r[74] + 8.9 r[75] + 5.9 r[76] + 1.5 r[77]
   + 7.3 r[78] + 5.5 r[79] + 2.6 r[80] + 7.8 r[81] + 3.1 r[82] + 9.8 r[83]
   + 7.4 r[84] + 5.4 r[85] + 2.4 r[86] + 6 r[87] + 7.8 r[88] + 8.3 r[89]
   + 6.1 r[90] + 1.3 r[91] + 5.7 r[92] + 0.8 r[93] + 7.2 r[94] + 8.9 r[95]
   + 0.9 r[96] + 6.9 r[97] + 7.2 r[98] + 0.4 r[99] + 2.5 r[100] + 6 r[101]
   + 0.6 r[102] + 2.4 r[103] + 1.7 r[104] + 5 r[105] + 4.3 r[106]
   + 9.9 r[107] + 1.5 r[108] + 8.5 r[109] <= 563
 primal_lower: 4.311941667077816 x[0] + 1.718520398223303 x[1]
   + 3.484137896345957 x[2] + 2.117518023113638 x[3]
   + 2.549406462720744 x[4] + 4.162783369557302 x[5]
   + 0.6721028108273391 x[6] + 2.841730079561998 x[7]
   + 1.102553751014037 x[8] + 1.12716015495368 x[9]
   + 3.462776245839724 x[10] + 3.483917776588757 x[11]
   + 2.961708178774903 x[12] + 3.88298061189068 x[13]
   + 1.166602356776537 x[14] + 3.339941725840358 x[15]
   + 3.192704899145398 x[16] + 0.0664426385163684 x[17]
   + 1.64514049272836 x[18] + 3.372033704256181 x[19]
   + 3.337728783940148 x[20] + 1.107138835647665 x[21]
   + 1.980244266243134 x[22] + 2.020245438694289 x[23]
   + 4.57768893045484 x[24] + 2.293057534040885 x[25]
   + 2.274316015776238 x[26] + 2.687279822833881 x[27]
   + 1.409093477013376 x[28] + 0.0714326682590332 x[29]
   + 2.809472272731209 x[30] + 4.079481838938567 x[31]
   + 1.501420398310156 x[32] + 0.1244524001471435 x[33]
   + 2.906125837212265 x[34] + 2.008711077122144 x[35]
   + 3.366720286588759 x[36] + 2.176557648201184 x[37]
   + 0.6604148462629466 x[38] + 3.943334426915448 x[39]
   + 3.705926353920434 x[40] + 1.081190001830079 x[41]
   + 1.925212829783004 x[42] + 3.54205829117263 x[43]
   + 0.1579804514071033 x[44] + 1.80819044999552 x[45]
   + 3.934836510080404 x[46] + 1.226233142794469 x[47]
   + 1.92763997093116 x[48] + 1.626431874401736 x[49]
   + 2.203844952253826 x[50] + 3.66208168039764 x[51]
   + 2.648486251232106 x[52] + 1.693708129429871 x[53]
   + 2.296941158103138 x[54] + 4.273045194881287 x[55]
   + 1.983962484063307 x[56] + 0.8253164824635899 x[57]
   + 2.679122908532119 x[58] + 1.65480139491519 x[59]
   + 2.87572875445411 x[60] + 2.484157614656691 x[61]
   + 3.207775823706978 x[62] + 1.335171127412163 x[63]
   + 0.0193845258887137 x[64] + 3.218852114830734 x[65]
   + 3.008628507816826 x[66] + 0.8988886447867581 x[67]
   + 1.795577529204087 x[68] + 3.291588514296079 x[69]
   + 2.492464111695614 x[70] + 2.787258400826747 x[71]
   + 3.737862118847261 x[72] + 0.3445348473471699 x[73]
   + 2.979360997585377 x[74] + 0.7645810938993487 x[75]
   + 3.675954815842087 x[76] + 2.497615240307915 x[77]
   + 1.112585712882881 x[78] + 4.622020783070621 x[79]
   + 4.464162206934909 x[80] + 0.3082627062157111 x[81]
   + 0.7172301364458163 x[82] + 4.360308096720634 x[83]
   + 1.36061218174373 x[84] + 2.92786731627358 x[85]
   + 1.392726463323912 x[86] + 0.3038001449355925 x[87]
   + 4.435058206625946 x[88] + 3.651532270006278 x[89]
   + 2.278611096874567 x[90] + 1.649491728773699 x[91]
   + 0.4608227522084172 x[92] + 4.293675118811976 x[93]
   + 4.648100142867817 x[94] + 2.368456768487156 x[95]
   + 3.164032637401003 x[96] + 1.696905678716437 x[97]
   + 3.295794650455388 x[98] + 2.359021573408957 x[99]
   + 4.105950478268114 x[100] + 2.896367694315502 x[101]
   + 3.97160555836461 x[102] + 0.3773081218631981 x[103]
   + 3.50231063721861 x[104] + 0.3350882280594317 x[105]
   + 0.7392887621401286 x[106] + 0.4238674062120379 x[107]
   + 1.753224889121948 x[108] + 0.3635698450255999 x[109] + 40 u[0]
   + 60 u[1] + 50 u[2] + 71 u[3] + 88 u[4] + 94 u[5] + 41 u[6] + 4 u[7]
   + 69 u[8] + 90 u[9] + 24 u[10] + 59 u[11] + 92 u[12] + 80 u[13]
   + 29 u[14] + 57 u[15] + 29 u[16] + 4 u[17] + 57 u[18] + 78 u[19]
   + 77 u[20] + 64 u[21] + 4 u[22] + 75 u[23] + 93 u[24] + 52 u[25]
   + 38 u[26] + 16 u[27] + 46 u[28] + 35 u[29] + 6 u[30] + 68 u[31]
   + 88 u[32] + 45 u[33] + 76 u[34] + 41 u[35] + 48 u[36] + 45 u[37]
   + 64 u[38] + 51 u[39] + 7 u[40] + 38 u[41] + 42 u[42] + 34 u[43]
   + 47 u[44] + 55 u[45] + 78 u[46] + 54 u[47] + 55 u[48] + 56 u[49]
   + 51 u[50] + 84 u[51] + 25 u[52] + 4 u[53] + 45 u[54] + 8 u[55]
   + 33 u[56] + 91 u[57] + 32 u[58] + 2 u[59] + 5 u[60] + 67 u[61]
   + 72 u[62] + 35 u[63] + 76 u[64] + 36 u[65] + 89 u[66] + 71 u[67]
   + 20 u[68] + 58 u[69] + 66 u[70] + 78 u[71] + 42 u[72] + 27 u[73]
   + 32 u[74] + 65 u[75] + 55 u[76] + 35 u[77] + 29 u[78] + 31 u[79]
   + 10 u[80] + 94 u[81] + 83 u[82] + 70 u[83] + 54 u[84] + 82 u[85]
   + 68 u[86] + 20 u[87] + 18 u[88] + 35 u[89] + 9 u[90] + 37 u[91]
   + 49 u[92] + 40 u[93] + 12 u[94] + 93 u[95] + 5 u[96] + 25 u[97]
   + 12 u[98] + 72 u[99] + 41 u[100] + 40 u[101] + 90 u[102] + 44 u[103]
   + 77 u[104] + 74 u[105] + 99 u[106] + 79 u[107] + 23 u[108] + 9 u[109]
   <= 28042
 mccormick1[0]: - u[0] + r[0] <= 0
 mccormick1[1]: - u[1] + r[1] <= 0
 mccormick1[2]: - u[2] + r[2] <= 0
 mccormick1[3]: - u[3] + r[3] <= 0
 mccormick1[4]: - u[4] + r[4] <= 0
 mccormick1[5]: - u[5] + r[5] <= 0
 mccormick1[6]: - u[6] + r[6] <= 0
 mccormick1[7]: - u[7] + r[7] <= 0
 mccormick1[8]: - u[8] + r[8] <= 0
 mccormick1[9]: - u[9] + r[9] <= 0
 mccormick1[10]: - u[10] + r[10] <= 0
 mccormick1[11]: - u[11] + r[11] <= 0
 mccormick1[12]: - u[12] + r[12] <= 0
 mccormick1[13]: - u[13] + r[13] <= 0
 mccormick1[14]: - u[14] + r[14] <= 0
 mccormick1[15]: - u[15] + r[15] <= 0
 mccormick1[16]: - u[16] + r[16] <= 0
 mccormick1[17]: - u[17] + r[17] <= 0
 mccormick1[18]: - u[18] + r[18] <= 0
 mccormick1[19]: - u[19] + r[19] <= 0
 mccormick1[20]: - u[20] + r[20] <= 0
 mccormick1[21]: - u[21] + r[21] <= 0
 mccormick1[22]: - u[22] + r[22] <= 0
 mccormick1[23]: - u[23] + r[23] <= 0
 mccormick1[24]: - u[24] + r[24] <= 0
 mccormick1[25]: - u[25] + r[25] <= 0
 mccormick1[26]: - u[26] + r[26] <= 0
 mccormick1[27]: - u[27] + r[27] <= 0
 mccormick1[28]: - u[28] + r[28] <= 0
 mccormick1[29]: - u[29] + r[29] <= 0
 mccormick1[30]: - u[30] + r[30] <= 0
 mccormick1[31]: - u[31] + r[31] <= 0
 mccormick1[32]: - u[32] + r[32] <= 0
 mccormick1[33]: - u[33] + r[33] <= 0
 mccormick1[34]: - u[34] + r[34] <= 0
 mccormick1[35]: - u[35] + r[35] <= 0
 mccormick1[36]: - u[36] + r[36] <= 0
 mccormick1[37]: - u[37] + r[37] <= 0
 mccormick1[38]: - u[38] + r[38] <= 0
 mccormick1[39]: - u[39] + r[39] <= 0
 mccormick1[40]: - u[40] + r[40] <= 0
 mccormick1[41]: - u[41] + r[41] <= 0
 mccormick1[42]: - u[42] + r[42] <= 0
 mccormick1[43]: - u[43] + r[43] <= 0
 mccormick1[44]: - u[44] + r[44] <= 0
 mccormick1[45]: - u[45] + r[45] <= 0
 mccormick1[46]: - u[46] + r[46] <= 0
 mccormick1[47]: - u[47] + r[47] <= 0
 mccormick1[48]: - u[48] + r[48] <= 0
 mccormick1[49]: - u[49] + r[49] <= 0
 mccormick1[50]: - u[50] + r[50] <= 0
 mccormick1[51]: - u[51] + r[51] <= 0
 mccormick1[52]: - u[52] + r[52] <= 0
 mccormick1[53]: - u[53] + r[53] <= 0
 mccormick1[54]: - u[54] + r[54] <= 0
 mccormick1[55]: - u[55] + r[55] <= 0
 mccormick1[56]: - u[56] + r[56] <= 0
 mccormick1[57]: - u[57] + r[57] <= 0
 mccormick1[58]: - u[58] + r[58] <= 0
 mccormick1[59]: - u[59] + r[59] <= 0
 mccormick1[60]: - u[60] + r[60] <= 0
 mccormick1[61]: - u[61] + r[61] <= 0
 mccormick1[62]: - u[62] + r[62] <= 0
 mccormick1[63]: - u[63] + r[63] <= 0
 mccormick1[64]: - u[64] + r[64] <= 0
 mccormick1[65]: - u[65] + r[65] <= 0
 mccormick1[66]: - u[66] + r[66] <= 0
 mccormick1[67]: - u[67] + r[67] <= 0
 mccormick1[68]: - u[68] + r[68] <= 0
 mccormick1[69]: - u[69] + r[69] <= 0
 mccormick1[70]: - u[70] + r[70] <= 0
 mccormick1[71]: - u[71] + r[71] <= 0
 mccormick1[72]: - u[72] + r[72] <= 0
 mccormick1[73]: - u[73] + r[73] <= 0
 mccormick1[74]: - u[74] + r[74] <= 0
 mccormick1[75]: - u[75] + r[75] <= 0
 mccormick1[76]: - u[76] + r[76] <= 0
 mccormick1[77]: - u[77] + r[77] <= 0
 mccormick1[78]: - u[78] + r[78] <= 0
 mccormick1[79]: - u[79] + r[79] <= 0
 mccormick1[80]: - u[80] + r[80] <= 0
 mccormick1[81]: - u[81] + r[81] <= 0
 mccormick1[82]: - u[82] + r[82] <= 0
 mccormick1[83]: - u[83] + r[83] <= 0
 mccormick1[84]: - u[84] + r[84] <= 0
 mccormick1[85]: - u[85] + r[85] <= 0
 mccormick1[86]: - u[86] + r[86] <= 0
 mccormick1[87]: - u[87] + r[87] <= 0
 mccormick1[88]: - u[88] + r[88] <= 0
 mccormick1[89]: - u[89] + r[89] <= 0
 mccormick1[90]: - u[90] + r[90] <= 0
 mccormick1[91]: - u[91] + r[91] <= 0
 mccormick1[92]: - u[92] + r[92] <= 0
 mccormick1[93]: - u[93] + r[93] <= 0
 mccormick1[94]: - u[94] + r[94] <= 0
 mccormick1[95]: - u[95] + r[95] <= 0
 mccormick1[96]: - u[96] + r[96] <= 0
 mccormick1[97]: - u[97] + r[97] <= 0
 mccormick1[98]: - u[98] + r[98] <= 0
 mccormick1[99]: - u[99] + r[99] <= 0
 mccormick1[100]: - u[100] + r[100] <= 0
 mccormick1[101]: - u[101] + r[101] <= 0
 mccormick1[102]: - u[102] + r[102] <= 0
 mccormick1[103]: - u[103] + r[103] <= 0
 mccormick1[104]: - u[104] + r[104] <= 0
 mccormick1[105]: - u[105] + r[105] <= 0
 mccormick1[106]: - u[106] + r[106] <= 0
 mccormick1[107]: - u[107] + r[107] <= 0
 mccormick1[108]: - u[108] + r[108] <= 0
 mccormick1[109]: - u[109] + r[109] <= 0
 mccormick2[0]: - x[0] + r[0] <= 0
 mccormick2[1]: - x[1] + r[1] <= 0
 mccormick2[2]: - x[2] + r[2] <= 0
 mccormick2[3]: - x[3] + r[3] <= 0
 mccormick2[4]: - x[4] + r[4] <= 0
 mccormick2[5]: - x[5] + r[5] <= 0
 mccormick2[6]: - x[6] + r[6] <= 0
 mccormick2[7]: - x[7] + r[7] <= 0
 mccormick2[8]: - x[8] + r[8] <= 0
 mccormick2[9]: - x[9] + r[9] <= 0
 mccormick2[10]: - x[10] + r[10] <= 0
 mccormick2[11]: - x[11] + r[11] <= 0
 mccormick2[12]: - x[12] + r[12] <= 0
 mccormick2[13]: - x[13] + r[13] <= 0
 mccormick2[14]: - x[14] + r[14] <= 0
 mccormick2[15]: - x[15] + r[15] <= 0
 mccormick2[16]: - x[16] + r[16] <= 0
 mccormick2[17]: - x[17] + r[17] <= 0
 mccormick2[18]: - x[18] + r[18] <= 0
 mccormick2[19]: - x[19] + r[19] <= 0
 mccormick2[20]: - x[20] + r[20] <= 0
 mccormick2[21]: - x[21] + r[21] <= 0
 mccormick2[22]: - x[22] + r[22] <= 0
 mccormick2[23]: - x[23] + r[23] <= 0
 mccormick2[24]: - x[24] + r[24] <= 0
 mccormick2[25]: - x[25] + r[25] <= 0
 mccormick2[26]: - x[26] + r[26] <= 0
 mccormick2[27]: - x[27] + r[27] <= 0
 mccormick2[28]: - x[28] + r[28] <= 0
 mccormick2[29]: - x[29] + r[29] <= 0
 mccormick2[30]: - x[30] + r[30] <= 0
 mccormick2[31]: - x[31] + r[31] <= 0
 mccormick2[32]: - x[32] + r[32] <= 0
 mccormick2[33]: - x[33] + r[33] <= 0
 mccormick2[34]: - x[34] + r[34] <= 0
 mccormick2[35]: - x[35] + r[35] <= 0
 mccormick2[36]: - x[36] + r[36] <= 0
 mccormick2[37]: - x[37] + r[37] <= 0
 mccormick2[38]: - x[38] + r[38] <= 0
 mccormick2[39]: - x[39] + r[39] <= 0
 mccormick2[40]: - x[40] + r[40] <= 0
 mccormick2[41]: - x[41] + r[41] <= 0
 mccormick2[42]: - x[42] + r[42] <= 0
 mccormick2[43]: - x[43] + r[43] <= 0
 mccormick2[44]: - x[44] + r[44] <= 0
 mccormick2[45]: - x[45] + r[45] <= 0
 mccormick2[46]: - x[46] + r[46] <= 0
 mccormick2[47]: - x[47] + r[47] <= 0
 mccormick2[48]: - x[48] + r[48] <= 0
 mccormick2[49]: - x[49] + r[49] <= 0
 mccormick2[50]: - x[50] + r[50] <= 0
 mccormick2[51]: - x[51] + r[51] <= 0
 mccormick2[52]: - x[52] + r[52] <= 0
 mccormick2[53]: - x[53] + r[53] <= 0
 mccormick2[54]: - x[54] + r[54] <= 0
 mccormick2[55]: - x[55] + r[55] <= 0
 mccormick2[56]: - x[56] + r[56] <= 0
 mccormick2[57]: - x[57] + r[57] <= 0
 mccormick2[58]: - x[58] + r[58] <= 0
 mccormick2[59]: - x[59] + r[59] <= 0
 mccormick2[60]: - x[60] + r[60] <= 0
 mccormick2[61]: - x[61] + r[61] <= 0
 mccormick2[62]: - x[62] + r[62] <= 0
 mccormick2[63]: - x[63] + r[63] <= 0
 mccormick2[64]: - x[64] + r[64] <= 0
 mccormick2[65]: - x[65] + r[65] <= 0
 mccormick2[66]: - x[66] + r[66] <= 0
 mccormick2[67]: - x[67] + r[67] <= 0
 mccormick2[68]: - x[68] + r[68] <= 0
 mccormick2[69]: - x[69] + r[69] <= 0
 mccormick2[70]: - x[70] + r[70] <= 0
 mccormick2[71]: - x[71] + r[71] <= 0
 mccormick2[72]: - x[72] + r[72] <= 0
 mccormick2[73]: - x[73] + r[73] <= 0
 mccormick2[74]: - x[74] + r[74] <= 0
 mccormick2[75]: - x[75] + r[75] <= 0
 mccormick2[76]: - x[76] + r[76] <= 0
 mccormick2[77]: - x[77] + r[77] <= 0
 mccormick2[78]: - x[78] + r[78] <= 0
 mccormick2[79]: - x[79] + r[79] <= 0
 mccormick2[80]: - x[80] + r[80] <= 0
 mccormick2[81]: - x[81] + r[81] <= 0
 mccormick2[82]: - x[82] + r[82] <= 0
 mccormick2[83]: - x[83] + r[83] <= 0
 mccormick2[84]: - x[84] + r[84] <= 0
 mccormick2[85]: - x[85] + r[85] <= 0
 mccormick2[86]: - x[86] + r[86] <= 0
 mccormick2[87]: - x[87] + r[87] <= 0
 mccormick2[88]: - x[88] + r[88] <= 0
 mccormick2[89]: - x[89] + r[89] <= 0
 mccormick2[90]: - x[90] + r[90] <= 0
 mccormick2[91]: - x[91] + r[91] <= 0
 mccormick2[92]: - x[92] + r[92] <= 0
 mccormick2[93]: - x[93] + r[93] <= 0
 mccormick2[94]: - x[94] + r[94] <= 0
 mccormick2[95]: - x[95] + r[95] <= 0
 mccormick2[96]: - x[96] + r[96] <= 0
 mccormick2[97]: - x[97] + r[97] <= 0
 mccormick2[98]: - x[98] + r[98] <= 0
 mccormick2[99]: - x[99] + r[99] <= 0
 mccormick2[100]: - x[100] + r[100] <= 0
 mccormick2[101]: - x[101] + r[101] <= 0
 mccormick2[102]: - x[102] + r[102] <= 0
 mccormick2[103]: - x[103] + r[103] <= 0
 mccormick2[104]: - x[104] + r[104] <= 0
 mccormick2[105]: - x[105] + r[105] <= 0
 mccormick2[106]: - x[106] + r[106] <= 0
 mccormick2[107]: - x[107] + r[107] <= 0
 mccormick2[108]: - x[108] + r[108] <= 0
 mccormick2[109]: - x[109] + r[109] <= 0
 mccormick3[0]: x[0] + u[0] - r[0] <= 1
 mccormick3[1]: x[1] + u[1] - r[1] <= 1
 mccormick3[2]: x[2] + u[2] - r[2] <= 1
 mccormick3[3]: x[3] + u[3] - r[3] <= 1
 mccormick3[4]: x[4] + u[4] - r[4] <= 1
 mccormick3[5]: x[5] + u[5] - r[5] <= 1
 mccormick3[6]: x[6] + u[6] - r[6] <= 1
 mccormick3[7]: x[7] + u[7] - r[7] <= 1
 mccormick3[8]: x[8] + u[8] - r[8] <= 1
 mccormick3[9]: x[9] + u[9] - r[9] <= 1
 mccormick3[10]: x[10] + u[10] - r[10] <= 1
 mccormick3[11]: x[11] + u[11] - r[11] <= 1
 mccormick3[12]: x[12] + u[12] - r[12] <= 1
 mccormick3[13]: x[13] + u[13] - r[13] <= 1
 mccormick3[14]: x[14] + u[14] - r[14] <= 1
 mccormick3[15]: x[15] + u[15] - r[15] <= 1
 mccormick3[16]: x[16] + u[16] - r[16] <= 1
 mccormick3[17]: x[17] + u[17] - r[17] <= 1
 mccormick3[18]: x[18] + u[18] - r[18] <= 1
 mccormick3[19]: x[19] + u[19] - r[19] <= 1
 mccormick3[20]: x[20] + u[20] - r[20] <= 1
 mccormick3[21]: x[21] + u[21] - r[21] <= 1
 mccormick3[22]: x[22] + u[22] - r[22] <= 1
 mccormick3[23]: x[23] + u[23] - r[23] <= 1
 mccormick3[24]: x[24] + u[24] - r[24] <= 1
 mccormick3[25]: x[25] + u[25] - r[25] <= 1
 mccormick3[26]: x[26] + u[26] - r[26] <= 1
 mccormick3[27]: x[27] + u[27] - r[27] <= 1
 mccormick3[28]: x[28] + u[28] - r[28] <= 1
 mccormick3[29]: x[29] + u[29] - r[29] <= 1
 mccormick3[30]: x[30] + u[30] - r[30] <= 1
 mccormick3[31]: x[31] + u[31] - r[31] <= 1
 mccormick3[32]: x[32] + u[32] - r[32] <= 1
 mccormick3[33]: x[33] + u[33] - r[33] <= 1
 mccormick3[34]: x[34] + u[34] - r[34] <= 1
 mccormick3[35]: x[35] + u[35] - r[35] <= 1
 mccormick3[36]: x[36] + u[36] - r[36] <= 1
 mccormick3[37]: x[37] + u[37] - r[37] <= 1
 mccormick3[38]: x[38] + u[38] - r[38] <= 1
 mccormick3[39]: x[39] + u[39] - r[39] <= 1
 mccormick3[40]: x[40] + u[40] - r[40] <= 1
 mccormick3[41]: x[41] + u[41] - r[41] <= 1
 mccormick3[42]: x[42] + u[42] - r[42] <= 1
 mccormick3[43]: x[43] + u[43] - r[43] <= 1
 mccormick3[44]: x[44] + u[44] - r[44] <= 1
 mccormick3[45]: x[45] + u[45] - r[45] <= 1
 mccormick3[46]: x[46] + u[46] - r[46] <= 1
 mccormick3[47]: x[47] + u[47] - r[47] <= 1
 mccormick3[48]: x[48] + u[48] - r[48] <= 1
 mccormick3[49]: x[49] + u[49] - r[49] <= 1
 mccormick3[50]: x[50] + u[50] - r[50] <= 1
 mccormick3[51]: x[51] + u[51] - r[51] <= 1
 mccormick3[52]: x[52] + u[52] - r[52] <= 1
 mccormick3[53]: x[53] + u[53] - r[53] <= 1
 mccormick3[54]: x[54] + u[54] - r[54] <= 1
 mccormick3[55]: x[55] + u[55] - r[55] <= 1
 mccormick3[56]: x[56] + u[56] - r[56] <= 1
 mccormick3[57]: x[57] + u[57] - r[57] <= 1
 mccormick3[58]: x[58] + u[58] - r[58] <= 1
 mccormick3[59]: x[59] + u[59] - r[59] <= 1
 mccormick3[60]: x[60] + u[60] - r[60] <= 1
 mccormick3[61]: x[61] + u[61] - r[61] <= 1
 mccormick3[62]: x[62] + u[62] - r[62] <= 1
 mccormick3[63]: x[63] + u[63] - r[63] <= 1
 mccormick3[64]: x[64] + u[64] - r[64] <= 1
 mccormick3[65]: x[65] + u[65] - r[65] <= 1
 mccormick3[66]: x[66] + u[66] - r[66] <= 1
 mccormick3[67]: x[67] + u[67] - r[67] <= 1
 mccormick3[68]: x[68] + u[68] - r[68] <= 1
 mccormick3[69]: x[69] + u[69] - r[69] <= 1
 mccormick3[70]: x[70] + u[70] - r[70] <= 1
 mccormick3[71]: x[71] + u[71] - r[71] <= 1
 mccormick3[72]: x[72] + u[72] - r[72] <= 1
 mccormick3[73]: x[73] + u[73] - r[73] <= 1
 mccormick3[74]: x[74] + u[74] - r[74] <= 1
 mccormick3[75]: x[75] + u[75] - r[75] <= 1
 mccormick3[76]: x[76] + u[76] - r[76] <= 1
 mccormick3[77]: x[77] + u[77] - r[77] <= 1
 mccormick3[78]: x[78] + u[78] - r[78] <= 1
 mccormick3[79]: x[79] + u[79] - r[79] <= 1
 mccormick3[80]: x[80] + u[80] - r[80] <= 1
 mccormick3[81]: x[81] + u[81] - r[81] <= 1
 mccormick3[82]: x[82] + u[82] - r[82] <= 1
 mccormick3[83]: x[83] + u[83] - r[83] <= 1
 mccormick3[84]: x[84] + u[84] - r[84] <= 1
 mccormick3[85]: x[85] + u[85] - r[85] <= 1
 mccormick3[86]: x[86] + u[86] - r[86] <= 1
 mccormick3[87]: x[87] + u[87] - r[87] <= 1
 mccormick3[88]: x[88] + u[88] - r[88] <= 1
 mccormick3[89]: x[89] + u[89] - r[89] <= 1
 mccormick3[90]: x[90] + u[90] - r[90] <= 1
 mccormick3[91]: x[91] + u[91] - r[91] <= 1
 mccormick3[92]: x[92] + u[92] - r[92] <= 1
 mccormick3[93]: x[93] + u[93] - r[93] <= 1
 mccormick3[94]: x[94] + u[94] - r[94] <= 1
 mccormick3[95]: x[95] + u[95] - r[95] <= 1
 mccormick3[96]: x[96] + u[96] - r[96] <= 1
 mccormick3[97]: x[97] + u[97] - r[97] <= 1
 mccormick3[98]: x[98] + u[98] - r[98] <= 1
 mccormick3[99]: x[99] + u[99] - r[99] <= 1
 mccormick3[100]: x[100] + u[100] - r[100] <= 1
 mccormick3[101]: x[101] + u[101] - r[101] <= 1
 mccormick3[102]: x[102] + u[102] - r[102] <= 1
 mccormick3[103]: x[103] + u[103] - r[103] <= 1
 mccormick3[104]: x[104] + u[104] - r[104] <= 1
 mccormick3[105]: x[105] + u[105] - r[105] <= 1
 mccormick3[106]: x[106] + u[106] - r[106] <= 1
 mccormick3[107]: x[107] + u[107] - r[107] <= 1
 mccormick3[108]: x[108] + u[108] - r[108] <= 1
 mccormick3[109]: x[109] + u[109] - r[109] <= 1
Bounds
Binaries
 x[0] x[1] x[2] x[3] x[4] x[5] x[6] x[7] x[8] x[9] x[10] x[11] x[12] x[13]
 x[14] x[15] x[16] x[17] x[18] x[19] x[20] x[21] x[22] x[23] x[24] x[25]
 x[26] x[27] x[28] x[29] x[30] x[31] x[32] x[33] x[34] x[35] x[36] x[37]
 x[38] x[39] x[40] x[41] x[42] x[43] x[44] x[45] x[46] x[47] x[48] x[49]
 x[50] x[51] x[52] x[53] x[54] x[55] x[56] x[57] x[58] x[59] x[60] x[61]
 x[62] x[63] x[64] x[65] x[66] x[67] x[68] x[69] x[70] x[71] x[72] x[73]
 x[74] x[75] x[76] x[77] x[78] x[79] x[80] x[81] x[82] x[83] x[84] x[85]
 x[86] x[87] x[88] x[89] x[90] x[91] x[92] x[93] x[94] x[95] x[96] x[97]
 x[98] x[99] x[100] x[101] x[102] x[103] x[104] x[105] x[106] x[107] x[108]
 x[109] u[0] u[1] u[2] u[3] u[4] u[5] u[6] u[7] u[8] u[9] u[10] u[11] u[12]
 u[13] u[14] u[15] u[16] u[17] u[18] u[19] u[20] u[21] u[22] u[23] u[24]
 u[25] u[26] u[27] u[28] u[29] u[30] u[31] u[32] u[33] u[34] u[35] u[36]
 u[37] u[38] u[39] u[40] u[41] u[42] u[43] u[44] u[45] u[46] u[47] u[48]
 u[49] u[50] u[51] u[52] u[53] u[54] u[55] u[56] u[57] u[58] u[59] u[60]
 u[61] u[62] u[63] u[64] u[65] u[66] u[67] u[68] u[69] u[70] u[71] u[72]
 u[73] u[74] u[75] u[76] u[77] u[78] u[79] u[80] u[81] u[82] u[83] u[84]
 u[85] u[86] u[87] u[88] u[89] u[90] u[91] u[92] u[93] u[94] u[95] u[96]
 u[97] u[98] u[99] u[100] u[101] u[102] u[103] u[104] u[105] u[106] u[107]
 u[108] u[109] r[0] r[1] r[2] r[3] r[4] r[5] r[6] r[7] r[8] r[9] r[10]
 r[11] r[12] r[13] r[14] r[15] r[16] r[17] r[18] r[19] r[20] r[21] r[22]
 r[23] r[24] r[25] r[26] r[27] r[28] r[29] r[30] r[31] r[32] r[33] r[34]
 r[35] r[36] r[37] r[38] r[39] r[40] r[41] r[42] r[43] r[44] r[45] r[46]
 r[47] r[48] r[49] r[50] r[51] r[52] r[53] r[54] r[55] r[56] r[57] r[58]
 r[59] r[60] r[61] r[62] r[63] r[64] r[65] r[66] r[67] r[68] r[69] r[70]
 r[71] r[72] r[73] r[74] r[75] r[76] r[77] r[78] r[79] r[80] r[81] r[82]
 r[83] r[84] r[85] r[86] r[87] r[88] r[89] r[90] r[91] r[92] r[93] r[94]
 r[95] r[96] r[97] r[98] r[99] r[100] r[101] r[102] r[103] r[104] r[105]
 r[106] r[107] r[108] r[109]
End
