instances/knapsack/discrete_knapsack_uncertainty/knapsack_110_14.kp
76274
110
563

32 3.2 6
100 10.0 63
46 4.6 44
71 7.1 28
28 2.8 6
30 3.0 33
61 6.1 54
28 2.8 36
93 9.3 63
74 7.4 11
68 6.8 3
43 4.3 3
28 2.8 55
60 6.0 82
89 8.9 23
93 9.3 76
85 8.5 74
96 9.6 46
41 4.1 83
22 2.2 54
69 6.9 42
60 6.0 99
64 6.4 48
23 2.3 12
33 3.3 73
24 2.4 39
62 6.2 32
92 9.2 12
6 0.6 22
83 8.3 53
58 5.8 1
48 4.8 84
76 7.6 64
61 6.1 35
52 5.2 32
93 9.3 21
64 6.4 65
89 8.9 39
68 6.8 51
83 8.3 56
87 8.7 100
98 9.8 30
34 3.4 62
6 0.6 31
11 1.1 35
63 6.3 75
54 5.4 61
98 9.8 97
99 9.9 77
92 9.2 14
39 3.9 59
24 2.4 3
77 7.7 11
76 7.6 89
77 7.7 60
48 4.8 90
1 0.1 91
87 8.7 72
48 4.8 40
82 8.2 95
9 0.9 28
7 0.7 54
48 4.8 94
23 2.3 14
36 3.6 47
24 2.4 33
69 6.9 57
55 5.5 26
72 7.2 53
62 6.2 14
30 3.0 1
10 1.0 47
2 0.2 41
79 7.9 98
16 1.6 7
89 8.9 6
59 5.9 94
15 1.5 5
73 7.3 36
55 5.5 12
26 2.6 11
78 7.8 58
31 3.1 58
98 9.8 2
74 7.4 5
54 5.4 17
24 2.4 14
60 6.0 75
78 7.8 8
83 8.3 99
61 6.1 10
13 1.3 26
57 5.7 42
8 0.8 69
72 7.2 8
89 8.9 43
9 0.9 61
69 6.9 60
72 7.2 25
4 0.4 93
25 2.5 13
60 6.0 46
6 0.6 7
24 2.4 18
17 1.7 71
50 5.0 83
43 4.3 22
99 9.9 61
15 1.5 46
85 8.5 13

28042
518

[4.311941667077816 1.7185203982233033 3.4841378963459575 2.1175180231136377 2.5494064627207442 4.162783369557302 0.6721028108273391 2.841730079561998 1.102553751014037 1.12716015495368 3.4627762458397235 3.483917776588757 2.9617081787749027 3.8829806118906802 1.1666023567765371 3.3399417258403576 3.192704899145398 0.06644263851636845 1.6451404927283604 3.3720337042561814 3.3377287839401477 1.107138835647665 1.9802442662431343 2.0202454386942885 4.57768893045484 2.2930575340408854 2.2743160157762383 2.687279822833881 1.4090934770133763 0.07143266825903316 2.809472272731209 4.079481838938567 1.5014203983101555 0.12445240014714345 2.9061258372122647 2.008711077122144 3.3667202865887593 2.176557648201184 0.6604148462629466 3.9433344269154484 3.7059263539204337 1.0811900018300793 1.9252128297830036 3.54205829117263 0.1579804514071033 1.80819044999552 3.934836510080404 1.2262331427944688 1.9276399709311602 1.626431874401736 2.203844952253826 3.6620816803976397 2.648486251232106 1.693708129429871 2.2969411581031376 4.273045194881287 1.9839624840633074 0.8253164824635899 2.679122908532119 1.6548013949151903 2.8757287544541104 2.484157614656691 3.2077758237069784 1.335171127412163 0.019384525888713693 3.218852114830734 3.0086285078168262 0.8988886447867581 1.7955775292040865 3.2915885142960786 2.492464111695614 2.7872584008267474 3.7378621188472607 0.34453484734716994 2.979360997585377 0.7645810938993487 3.675954815842087 2.4976152403079155 1.1125857128828807 4.622020783070621 4.464162206934909 0.3082627062157111 0.7172301364458163 4.360308096720634 1.3606121817437302 2.92786731627358 1.3927264633239116 0.3038001449355925 4.435058206625946 3.6515322700062782 2.2786110968745668 1.6494917287736985 0.4608227522084172 4.293675118811976 4.6481001428678175 2.3684567684871562 3.164032637401003 1.6969056787164367 3.295794650455388 2.3590215734089575 4.105950478268114 2.8963676943155017 3.9716055583646104 0.3773081218631981 3.50231063721861 0.3350882280594317 0.7392887621401286 0.42386740621203794 1.753224889121948 0.36356984502559986]

[40 60 50 71 88 94 41 4 69 90 24 59 92 80 29 57 29 4 57 78 77 64 4 75 93 52 38 16 46 35 6 68 88 45 76 41 48 45 64 51 7 38 42 34 47 55 78 54 55 56 51 84 25 4 45 8 33 91 32 2 5 67 72 35 76 36 89 71 20 58 66 78 42 27 32 65 55 35 29 31 10 94 83 70 54 82 68 20 18 35 9 37 49 40 12 93 5 25 12 72 41 40 90 44 77 74 99 79 23 9]
